benchmark/results/graph__15-1000-0.10-03_1/graph__15-1000-0.10-03_1_Quinton_Benders_primal_sub.lp
\ This file has been generated by DOcplex
\ ENCODING=ISO-8859-1
\Problem name: Quinton Benders_primal_sub

Maximize
 obj: tau
Subject To
 c1: tau <= 0.001221001221
 c2: y_a0_proc_0 + y_a0_proc_1 + y_a0_proc_2 - tau = 0
 c3: y_a0_proc_0 <= 1
 c4: y_a0_proc_1 <= 0
 c5: y_a0_proc_2 <= 0
 c6: tau <= 0.000898472597
 c7: y_a1_proc_0 + y_a1_proc_1 + y_a1_proc_2 - tau = 0
 c8: y_a1_proc_0 <= 0
 c9: y_a1_proc_1 <= 1
 c10: y_a1_proc_2 <= 0
 c11: tau <= 0.000988142292
 c12: y_a2_proc_0 + y_a2_proc_2 - tau = 0
 c13: y_a2_proc_0 <= 0
 c14: y_a2_proc_2 <= 1
 c15: tau <= 0.001355013550
 c16: y_a3_proc_0 + y_a3_proc_1 + y_a3_proc_2 - tau = 0
 c17: y_a3_proc_0 <= 0
 c18: y_a3_proc_1 <= 0
 c19: y_a3_proc_2 <= 1
 c20: tau <= 0.001988071571
 c21: y_a4_proc_0 + y_a4_proc_2 - tau = 0
 c22: y_a4_proc_0 <= 0
 c23: y_a4_proc_2 <= 1
 c24: tau <= 0.001037344398
 c25: y_a5_proc_0 + y_a5_proc_2 - tau = 0
 c26: y_a5_proc_0 <= 1
 c27: y_a5_proc_2 <= 0
 c28: tau <= 0.001162790698
 c29: y_a6_proc_0 + y_a6_proc_2 - tau = 0
 c30: y_a6_proc_0 <= 0
 c31: y_a6_proc_2 <= 1
 c32: tau <= 0.001187648456
 c33: y_a7_proc_1 + y_a7_proc_2 - tau = 0
 c34: y_a7_proc_1 <= 1
 c35: y_a7_proc_2 <= 0
 c36: tau <= 0.000986193294
 c37: y_a8_proc_0 + y_a8_proc_1 - tau = 0
 c38: y_a8_proc_0 <= 0
 c39: y_a8_proc_1 <= 1
 c40: tau <= 0.002222222222
 c41: y_a9_proc_0 + y_a9_proc_1 + y_a9_proc_2 - tau = 0
 c42: y_a9_proc_0 <= 0
 c43: y_a9_proc_1 <= 1
 c44: y_a9_proc_2 <= 0
 c45: tau <= 0.001177856302
 c46: y_a10_proc_1 + y_a10_proc_2 - tau = 0
 c47: y_a10_proc_1 <= 1
 c48: y_a10_proc_2 <= 0
 c49: tau <= 0.000791765637
 c50: y_a11_proc_0 + y_a11_proc_1 + y_a11_proc_2 - tau = 0
 c51: y_a11_proc_0 <= 0
 c52: y_a11_proc_1 <= 0
 c53: y_a11_proc_2 <= 1
 c54: tau <= 0.001356852103
 c55: y_a12_proc_0 + y_a12_proc_1 + y_a12_proc_2 - tau = 0
 c56: y_a12_proc_0 <= 0
 c57: y_a12_proc_1 <= 1
 c58: y_a12_proc_2 <= 0
 c59: tau <= 0.001113585746
 c60: y_a13_proc_1 + y_a13_proc_2 - tau = 0
 c61: y_a13_proc_1 <= 1
 c62: y_a13_proc_2 <= 0
 c63: tau <= 0.000997008973
 c64: y_a14_proc_0 + y_a14_proc_1 - tau = 0
 c65: y_a14_proc_0 <= 0
 c66: y_a14_proc_1 <= 1
 c67: u_a0 - u_a1 - 837 y_a1_proc_0 - 1113 y_a1_proc_1 - 1184 y_a1_proc_2 >= 0
 c68: u_a1 - u_a2 - 999 y_a2_proc_0 - 1012 y_a2_proc_2 >= 0
 c69: u_a3 - u_a2 - 999 y_a2_proc_0 - 1012 y_a2_proc_2 >= -1
 c70: u_a3 - u_a4 - 1190 y_a4_proc_0 - 503 y_a4_proc_2 >= 0
 c71: u_a5 - u_a0 - 819 y_a0_proc_0 - 1162 y_a0_proc_1 - 1246 y_a0_proc_2 >= 0
 c72: u_a2 - u_a6 - 1087 y_a6_proc_0 - 860 y_a6_proc_2 >= 0
 c73: u_a7 - u_a6 - 1087 y_a6_proc_0 - 860 y_a6_proc_2 >= 0
 c74: u_a6 - u_a8 - 1153 y_a8_proc_0 - 1014 y_a8_proc_1 >= 0
 c75: u_a8 - u_a9 - 1165 y_a9_proc_0 - 450 y_a9_proc_1 - 713 y_a9_proc_2 >= 0
 c76: u_a10 - u_a3 - 834 y_a3_proc_0 - 943 y_a3_proc_1 - 738 y_a3_proc_2 >= 0
 c77: u_a11 - u_a9 - 1165 y_a9_proc_0 - 450 y_a9_proc_1 - 713 y_a9_proc_2 >= 0
 c78: u_a1 - u_a12 - 1193 y_a12_proc_0 - 737 y_a12_proc_1 - 1110 y_a12_proc_2
       >= 0
 c79: u_a13 - u_a5 - 964 y_a5_proc_0 - 871 y_a5_proc_2 >= -1
 c80: u_a0 - u_a14 - 1017 y_a14_proc_0 - 1003 y_a14_proc_1 >= -1
 c81: u_a12 - u_a9 - 1165 y_a9_proc_0 - 450 y_a9_proc_1 - 713 y_a9_proc_2 >= 0
 c82: u_a5 - u_a1 - 837 y_a1_proc_0 - 1113 y_a1_proc_1 - 1184 y_a1_proc_2 >= 0
 c83: u_a12 - u_a7 - 842 y_a7_proc_1 - 1057 y_a7_proc_2 >= 0
 c84: u_a13 - u_a10 - 849 y_a10_proc_1 - 1243 y_a10_proc_2 >= -1
 c85: u_a4 - u_a11 - 1073 y_a11_proc_0 - 619 y_a11_proc_1 - 1263 y_a11_proc_2
       >= 0
 c86: u_a9 - u_a6 - 1087 y_a6_proc_0 - 860 y_a6_proc_2 >= -1
 c87: u_a14 - u_a2 - 999 y_a2_proc_0 - 1012 y_a2_proc_2 >= 0
 c88: u_a9 - u_a14 - 1017 y_a14_proc_0 - 1003 y_a14_proc_1 >= -1
 c89: u_a1 - u_a13 - 898 y_a13_proc_1 - 1017 y_a13_proc_2 >= 0
 c90: u_a9 - u_a13 - 898 y_a13_proc_1 - 1017 y_a13_proc_2 >= -1
 c91: u_a6 - u_a3 - 834 y_a3_proc_0 - 943 y_a3_proc_1 - 738 y_a3_proc_2 >= -1
 c92: u_a14 - u_a10 - 849 y_a10_proc_1 - 1243 y_a10_proc_2 >= 0
 c93: u_a11 - u_a12 - 1193 y_a12_proc_0 - 737 y_a12_proc_1 - 1110 y_a12_proc_2
       >= 0
 c94: u_a12 - u_a8 - 1153 y_a8_proc_0 - 1014 y_a8_proc_1 >= 0
 c95: u_a13 - u_a12 - 1193 y_a12_proc_0 - 737 y_a12_proc_1 - 1110 y_a12_proc_2
       >= 0
 c96: u_a1 - u_a0 - 1246 y_a0_proc_2 >= -1264
 c97: u_a1 - u_a0 - 819 y_a0_proc_0 >= -1
 c98: u_a1 - u_a0 - 1162 y_a0_proc_1 >= -1
 c99: u_a0 - u_a1 - 1184 y_a1_proc_2 >= -3789
 c100: u_a0 - u_a1 - 837 y_a1_proc_0 >= -2526
 c101: u_a0 - u_a1 - 1113 y_a1_proc_1 >= -2526
 c102: u_a2 - u_a0 - 1246 y_a0_proc_2 >= -1
 c103: u_a2 - u_a0 - 819 y_a0_proc_0 >= -1
 c104: u_a0 - u_a2 - 1012 y_a2_proc_2 >= -2526
 c105: u_a0 - u_a2 - 999 y_a2_proc_0 >= -2526
 c106: u_a3 - u_a0 - 1246 y_a0_proc_2 >= -1
 c107: u_a3 - u_a0 - 819 y_a0_proc_0 >= -1
 c108: u_a3 - u_a0 - 1162 y_a0_proc_1 >= -1264
 c109: u_a0 - u_a3 - 738 y_a3_proc_2 >= -2526
 c110: u_a0 - u_a3 - 834 y_a3_proc_0 >= -2526
 c111: u_a0 - u_a3 - 943 y_a3_proc_1 >= -3789
 c112: u_a4 - u_a0 - 1246 y_a0_proc_2 >= -1365
 c113: u_a4 - u_a0 - 819 y_a0_proc_0 >= -1365
 c114: u_a0 - u_a4 - 503 y_a4_proc_2 >= -1162
 c115: u_a0 - u_a4 - 1190 y_a4_proc_0 >= -1162
 c116: u_a5 - u_a0 - 1246 y_a0_proc_2 >= -2526
 c117: u_a5 - u_a0 - 819 y_a0_proc_0 >= 0
 c118: u_a0 - u_a5 - 871 y_a5_proc_2 >= -2527
 c119: u_a0 - u_a5 - 964 y_a5_proc_0 >= -1
 c120: u_a6 - u_a0 - 1246 y_a0_proc_2 >= -2
 c121: u_a6 - u_a0 - 819 y_a0_proc_0 >= -2
 c122: u_a0 - u_a6 - 860 y_a6_proc_2 >= -2525
 c123: u_a0 - u_a6 - 1087 y_a6_proc_0 >= -2525
 c124: u_a7 - u_a0 - 1246 y_a0_proc_2 >= -3790
 c125: u_a7 - u_a0 - 1162 y_a0_proc_1 >= -2527
 c126: u_a0 - u_a7 - 1057 y_a7_proc_2 >= -1263
 c127: u_a0 - u_a7 - 842 y_a7_proc_1 >= 0
 c128: u_a8 - u_a0 - 819 y_a0_proc_0 >= -2
 c129: u_a8 - u_a0 - 1162 y_a0_proc_1 >= -2
 c130: u_a0 - u_a8 - 1153 y_a8_proc_0 >= -2525
 c131: u_a0 - u_a8 - 1014 y_a8_proc_1 >= -2525
 c132: u_a9 - u_a0 - 1246 y_a0_proc_2 >= -3790
 c133: u_a9 - u_a0 - 819 y_a0_proc_0 >= -2527
 c134: u_a9 - u_a0 - 1162 y_a0_proc_1 >= -2527
 c135: u_a0 - u_a9 - 713 y_a9_proc_2 >= -1263
 c136: u_a0 - u_a9 - 1165 y_a9_proc_0 >= 0
 c137: u_a0 - u_a9 - 450 y_a9_proc_1 >= 0
 c138: u_a10 - u_a0 - 1246 y_a0_proc_2 >= -3790
 c139: u_a10 - u_a0 - 1162 y_a0_proc_1 >= -2527
 c140: u_a0 - u_a10 - 1243 y_a10_proc_2 >= -1263
 c141: u_a0 - u_a10 - 849 y_a10_proc_1 >= 0
 c142: u_a11 - u_a0 - 1246 y_a0_proc_2 >= -2527
 c143: u_a11 - u_a0 - 819 y_a0_proc_0 >= -2527
 c144: u_a11 - u_a0 - 1162 y_a0_proc_1 >= -3790
 c145: u_a0 - u_a11 - 1263 y_a11_proc_2 >= 0
 c146: u_a0 - u_a11 - 1073 y_a11_proc_0 >= 0
 c147: u_a0 - u_a11 - 619 y_a11_proc_1 >= -1263
 c148: u_a12 - u_a0 - 1246 y_a0_proc_2 >= -1264
 c149: u_a12 - u_a0 - 819 y_a0_proc_0 >= -1
 c150: u_a12 - u_a0 - 1162 y_a0_proc_1 >= -1
 c151: u_a0 - u_a12 - 1110 y_a12_proc_2 >= -3789
 c152: u_a0 - u_a12 - 1193 y_a12_proc_0 >= -2526
 c153: u_a0 - u_a12 - 737 y_a12_proc_1 >= -2526
 c154: u_a13 - u_a0 - 1246 y_a0_proc_2 >= -1264
 c155: u_a13 - u_a0 - 1162 y_a0_proc_1 >= -1
 c156: u_a0 - u_a13 - 1017 y_a13_proc_2 >= -3789
 c157: u_a0 - u_a13 - 898 y_a13_proc_1 >= -2526
 c158: u_a14 - u_a0 - 819 y_a0_proc_0 >= -1
 c159: u_a14 - u_a0 - 1162 y_a0_proc_1 >= -1
 c160: u_a0 - u_a14 - 1017 y_a14_proc_0 >= -2526
 c161: u_a0 - u_a14 - 1003 y_a14_proc_1 >= -2526
 c162: u_a2 - u_a1 - 1184 y_a1_proc_2 >= -1
 c163: u_a2 - u_a1 - 837 y_a1_proc_0 >= -1264
 c164: u_a1 - u_a2 - 1012 y_a2_proc_2 >= -2526
 c165: u_a1 - u_a2 - 999 y_a2_proc_0 >= -3789
 c166: u_a3 - u_a1 - 1184 y_a1_proc_2 >= 0
 c167: u_a3 - u_a1 - 837 y_a1_proc_0 >= -1263
 c168: u_a3 - u_a1 - 1113 y_a1_proc_1 >= 0
 c169: u_a1 - u_a3 - 738 y_a3_proc_2 >= -2527
 c170: u_a1 - u_a3 - 834 y_a3_proc_0 >= -3790
 c171: u_a1 - u_a3 - 943 y_a3_proc_1 >= -2527
 c172: u_a4 - u_a1 - 1184 y_a1_proc_2 >= 0
 c173: u_a4 - u_a1 - 837 y_a1_proc_0 >= -1263
 c174: u_a1 - u_a4 - 503 y_a4_proc_2 >= -2527
 c175: u_a1 - u_a4 - 1190 y_a4_proc_0 >= -3790
 c176: u_a5 - u_a1 - 1184 y_a1_proc_2 >= -3789
 c177: u_a5 - u_a1 - 837 y_a1_proc_0 >= -2526
 c178: u_a1 - u_a5 - 871 y_a5_proc_2 >= -1264
 c179: u_a1 - u_a5 - 964 y_a5_proc_0 >= -1
 c180: u_a6 - u_a1 - 1184 y_a1_proc_2 >= -1
 c181: u_a6 - u_a1 - 837 y_a1_proc_0 >= -1264
 c182: u_a1 - u_a6 - 860 y_a6_proc_2 >= -2526
 c183: u_a1 - u_a6 - 1087 y_a6_proc_0 >= -3789
 c184: u_a7 - u_a1 - 1184 y_a1_proc_2 >= -2527
 c185: u_a7 - u_a1 - 1113 y_a1_proc_1 >= -1
 c186: u_a1 - u_a7 - 1057 y_a7_proc_2 >= -2526
 c187: u_a1 - u_a7 - 842 y_a7_proc_1 >= 0
 c188: u_a8 - u_a1 - 837 y_a1_proc_0 >= -2527
 c189: u_a8 - u_a1 - 1113 y_a1_proc_1 >= -1
 c190: u_a1 - u_a8 - 1153 y_a8_proc_0 >= -2526
 c191: u_a1 - u_a8 - 1014 y_a8_proc_1 >= 0
 c192: u_a9 - u_a1 - 1184 y_a1_proc_2 >= -2527
 c193: u_a9 - u_a1 - 837 y_a1_proc_0 >= -2527
 c194: u_a9 - u_a1 - 1113 y_a1_proc_1 >= -1
 c195: u_a1 - u_a9 - 713 y_a9_proc_2 >= -2526
 c196: u_a1 - u_a9 - 1165 y_a9_proc_0 >= -2526
 c197: u_a1 - u_a9 - 450 y_a9_proc_1 >= 0
 c198: u_a10 - u_a1 - 1184 y_a1_proc_2 >= -2526
 c199: u_a10 - u_a1 - 1113 y_a1_proc_1 >= 0
 c200: u_a1 - u_a10 - 1243 y_a10_proc_2 >= -2527
 c201: u_a1 - u_a10 - 849 y_a10_proc_1 >= -1
 c202: u_a11 - u_a1 - 1184 y_a1_proc_2 >= -1
 c203: u_a11 - u_a1 - 837 y_a1_proc_0 >= -1264
 c204: u_a11 - u_a1 - 1113 y_a1_proc_1 >= -1
 c205: u_a1 - u_a11 - 1263 y_a11_proc_2 >= -2526
 c206: u_a1 - u_a11 - 1073 y_a11_proc_0 >= -3789
 c207: u_a1 - u_a11 - 619 y_a11_proc_1 >= -2526
 c208: u_a12 - u_a1 - 1184 y_a1_proc_2 >= -2527
 c209: u_a12 - u_a1 - 837 y_a1_proc_0 >= -2527
 c210: u_a12 - u_a1 - 1113 y_a1_proc_1 >= -1
 c211: u_a1 - u_a12 - 1110 y_a12_proc_2 >= -2526
 c212: u_a1 - u_a12 - 1193 y_a12_proc_0 >= -2526
 c213: u_a1 - u_a12 - 737 y_a12_proc_1 >= 0
 c214: u_a13 - u_a1 - 1184 y_a1_proc_2 >= -2527
 c215: u_a13 - u_a1 - 1113 y_a1_proc_1 >= -1
 c216: u_a1 - u_a13 - 1017 y_a13_proc_2 >= -2526
 c217: u_a1 - u_a13 - 898 y_a13_proc_1 >= 0
 c218: u_a14 - u_a1 - 837 y_a1_proc_0 >= -2526
 c219: u_a14 - u_a1 - 1113 y_a1_proc_1 >= 0
 c220: u_a1 - u_a14 - 1017 y_a14_proc_0 >= -2527
 c221: u_a1 - u_a14 - 1003 y_a14_proc_1 >= -1
 c222: u_a3 - u_a2 - 1012 y_a2_proc_2 >= 0
 c223: u_a3 - u_a2 - 999 y_a2_proc_0 >= -2526
 c224: u_a2 - u_a3 - 738 y_a3_proc_2 >= -1
 c225: u_a2 - u_a3 - 834 y_a3_proc_0 >= -2527
 c226: u_a4 - u_a2 - 1012 y_a2_proc_2 >= 0
 c227: u_a4 - u_a2 - 999 y_a2_proc_0 >= -2526
 c228: u_a2 - u_a4 - 503 y_a4_proc_2 >= -1
 c229: u_a2 - u_a4 - 1190 y_a4_proc_0 >= -2527
 c230: u_a5 - u_a2 - 1012 y_a2_proc_2 >= 0
 c231: u_a5 - u_a2 - 999 y_a2_proc_0 >= 0
 c232: u_a2 - u_a5 - 871 y_a5_proc_2 >= -2527
 c233: u_a2 - u_a5 - 964 y_a5_proc_0 >= -2527
 c234: u_a6 - u_a2 - 1012 y_a2_proc_2 >= -1
 c235: u_a6 - u_a2 - 999 y_a2_proc_0 >= -2527
 c236: u_a2 - u_a6 - 860 y_a6_proc_2 >= 0
 c237: u_a2 - u_a6 - 1087 y_a6_proc_0 >= -2526
 c238: u_a7 - u_a2 - 1012 y_a2_proc_2 >= -2526
 c239: u_a2 - u_a7 - 1057 y_a7_proc_2 >= -1
 c240: u_a8 - u_a2 - 999 y_a2_proc_0 >= -5053
 c241: u_a2 - u_a8 - 1153 y_a8_proc_0 >= 0
 c242: u_a9 - u_a2 - 1012 y_a2_proc_2 >= -2527
 c243: u_a9 - u_a2 - 999 y_a2_proc_0 >= -3790
 c244: u_a2 - u_a9 - 713 y_a9_proc_2 >= 0
 c245: u_a2 - u_a9 - 1165 y_a9_proc_0 >= -1263
 c246: u_a10 - u_a2 - 1012 y_a2_proc_2 >= 0
 c247: u_a2 - u_a10 - 1243 y_a10_proc_2 >= -2527
 c248: u_a11 - u_a2 - 1012 y_a2_proc_2 >= 0
 c249: u_a11 - u_a2 - 999 y_a2_proc_0 >= -2526
 c250: u_a2 - u_a11 - 1263 y_a11_proc_2 >= -1
 c251: u_a2 - u_a11 - 1073 y_a11_proc_0 >= -2527
 c252: u_a12 - u_a2 - 1012 y_a2_proc_2 >= -2526
 c253: u_a12 - u_a2 - 999 y_a2_proc_0 >= -3789
 c254: u_a2 - u_a12 - 1110 y_a12_proc_2 >= -1
 c255: u_a2 - u_a12 - 1193 y_a12_proc_0 >= -1264
 c256: u_a13 - u_a2 - 1012 y_a2_proc_2 >= 0
 c257: u_a2 - u_a13 - 1017 y_a13_proc_2 >= -2527
 c258: u_a14 - u_a2 - 999 y_a2_proc_0 >= -5052
 c259: u_a2 - u_a14 - 1017 y_a14_proc_0 >= -1
 c260: u_a4 - u_a3 - 738 y_a3_proc_2 >= -1
 c261: u_a4 - u_a3 - 834 y_a3_proc_0 >= -2527
 c262: u_a3 - u_a4 - 503 y_a4_proc_2 >= 0
 c263: u_a3 - u_a4 - 1190 y_a4_proc_0 >= -2526
 c264: u_a5 - u_a3 - 738 y_a3_proc_2 >= 0
 c265: u_a5 - u_a3 - 834 y_a3_proc_0 >= 0
 c266: u_a3 - u_a5 - 871 y_a5_proc_2 >= -2527
 c267: u_a3 - u_a5 - 964 y_a5_proc_0 >= -2527
 c268: u_a6 - u_a3 - 738 y_a3_proc_2 >= -1
 c269: u_a6 - u_a3 - 834 y_a3_proc_0 >= -2527
 c270: u_a3 - u_a6 - 860 y_a6_proc_2 >= 0
 c271: u_a3 - u_a6 - 1087 y_a6_proc_0 >= -2526
 c272: u_a7 - u_a3 - 738 y_a3_proc_2 >= -2527
 c273: u_a7 - u_a3 - 943 y_a3_proc_1 >= -2527
 c274: u_a3 - u_a7 - 1057 y_a7_proc_2 >= 0
 c275: u_a3 - u_a7 - 842 y_a7_proc_1 >= 0
 c276: u_a8 - u_a3 - 834 y_a3_proc_0 >= -3790
 c277: u_a8 - u_a3 - 943 y_a3_proc_1 >= -2527
 c278: u_a3 - u_a8 - 1153 y_a8_proc_0 >= -1263
 c279: u_a3 - u_a8 - 1014 y_a8_proc_1 >= 0
 c280: u_a9 - u_a3 - 738 y_a3_proc_2 >= -2527
 c281: u_a9 - u_a3 - 834 y_a3_proc_0 >= -3790
 c282: u_a9 - u_a3 - 943 y_a3_proc_1 >= -2527
 c283: u_a3 - u_a9 - 713 y_a9_proc_2 >= 0
 c284: u_a3 - u_a9 - 1165 y_a9_proc_0 >= -1263
 c285: u_a3 - u_a9 - 450 y_a9_proc_1 >= 0
 c286: u_a10 - u_a3 - 738 y_a3_proc_2 >= -2526
 c287: u_a10 - u_a3 - 943 y_a3_proc_1 >= -2526
 c288: u_a3 - u_a10 - 1243 y_a10_proc_2 >= -1
 c289: u_a3 - u_a10 - 849 y_a10_proc_1 >= -1
 c290: u_a11 - u_a3 - 738 y_a3_proc_2 >= -1
 c291: u_a11 - u_a3 - 834 y_a3_proc_0 >= -2527
 c292: u_a11 - u_a3 - 943 y_a3_proc_1 >= -2527
 c293: u_a3 - u_a11 - 1263 y_a11_proc_2 >= 0
 c294: u_a3 - u_a11 - 1073 y_a11_proc_0 >= -2526
 c295: u_a3 - u_a11 - 619 y_a11_proc_1 >= -2526
 c296: u_a12 - u_a3 - 738 y_a3_proc_2 >= -2527
 c297: u_a12 - u_a3 - 834 y_a3_proc_0 >= -3790
 c298: u_a12 - u_a3 - 943 y_a3_proc_1 >= -2527
 c299: u_a3 - u_a12 - 1110 y_a12_proc_2 >= 0
 c300: u_a3 - u_a12 - 1193 y_a12_proc_0 >= -1263
 c301: u_a3 - u_a12 - 737 y_a12_proc_1 >= 0
 c302: u_a13 - u_a3 - 738 y_a3_proc_2 >= -2527
 c303: u_a13 - u_a3 - 943 y_a3_proc_1 >= -2527
 c304: u_a3 - u_a13 - 1017 y_a13_proc_2 >= 0
 c305: u_a3 - u_a13 - 898 y_a13_proc_1 >= 0
 c306: u_a14 - u_a3 - 834 y_a3_proc_0 >= -3789
 c307: u_a14 - u_a3 - 943 y_a3_proc_1 >= -2526
 c308: u_a3 - u_a14 - 1017 y_a14_proc_0 >= -1264
 c309: u_a3 - u_a14 - 1003 y_a14_proc_1 >= -1
 c310: u_a5 - u_a4 - 503 y_a4_proc_2 >= 0
 c311: u_a5 - u_a4 - 1190 y_a4_proc_0 >= 0
 c312: u_a4 - u_a5 - 871 y_a5_proc_2 >= -2527
 c313: u_a4 - u_a5 - 964 y_a5_proc_0 >= -2527
 c314: u_a6 - u_a4 - 503 y_a4_proc_2 >= -1
 c315: u_a6 - u_a4 - 1190 y_a4_proc_0 >= -2527
 c316: u_a4 - u_a6 - 860 y_a6_proc_2 >= 0
 c317: u_a4 - u_a6 - 1087 y_a6_proc_0 >= -2526
 c318: u_a7 - u_a4 - 503 y_a4_proc_2 >= -2527
 c319: u_a4 - u_a7 - 1057 y_a7_proc_2 >= 0
 c320: u_a8 - u_a4 - 1190 y_a4_proc_0 >= -5053
 c321: u_a4 - u_a8 - 1153 y_a8_proc_0 >= 0
 c322: u_a9 - u_a4 - 503 y_a4_proc_2 >= -2527
 c323: u_a9 - u_a4 - 1190 y_a4_proc_0 >= -3790
 c324: u_a4 - u_a9 - 713 y_a9_proc_2 >= 0
 c325: u_a4 - u_a9 - 1165 y_a9_proc_0 >= -1263
 c326: u_a10 - u_a4 - 503 y_a4_proc_2 >= -2526
 c327: u_a4 - u_a10 - 1243 y_a10_proc_2 >= -1
 c328: u_a11 - u_a4 - 503 y_a4_proc_2 >= -1
 c329: u_a11 - u_a4 - 1190 y_a4_proc_0 >= -2527
 c330: u_a4 - u_a11 - 1263 y_a11_proc_2 >= 0
 c331: u_a4 - u_a11 - 1073 y_a11_proc_0 >= -2526
 c332: u_a12 - u_a4 - 503 y_a4_proc_2 >= -1
 c333: u_a12 - u_a4 - 1190 y_a4_proc_0 >= -1264
 c334: u_a4 - u_a12 - 1110 y_a12_proc_2 >= -2526
 c335: u_a4 - u_a12 - 1193 y_a12_proc_0 >= -3789
 c336: u_a13 - u_a4 - 503 y_a4_proc_2 >= -2527
 c337: u_a4 - u_a13 - 1017 y_a13_proc_2 >= 0
 c338: u_a14 - u_a4 - 1190 y_a4_proc_0 >= -5052
 c339: u_a4 - u_a14 - 1017 y_a14_proc_0 >= -1
 c340: u_a6 - u_a5 - 871 y_a5_proc_2 >= -2528
 c341: u_a6 - u_a5 - 964 y_a5_proc_0 >= -2528
 c342: u_a5 - u_a6 - 860 y_a6_proc_2 >= 1
 c343: u_a5 - u_a6 - 1087 y_a6_proc_0 >= 1
 c344: u_a7 - u_a5 - 871 y_a5_proc_2 >= -5053
 c345: u_a5 - u_a7 - 1057 y_a7_proc_2 >= 0
 c346: u_a8 - u_a5 - 964 y_a5_proc_0 >= -2528
 c347: u_a5 - u_a8 - 1153 y_a8_proc_0 >= 1
 c348: u_a9 - u_a5 - 871 y_a5_proc_2 >= -3791
 c349: u_a9 - u_a5 - 964 y_a5_proc_0 >= -2528
 c350: u_a5 - u_a9 - 713 y_a9_proc_2 >= -1262
 c351: u_a5 - u_a9 - 1165 y_a9_proc_0 >= 1
 c352: u_a10 - u_a5 - 871 y_a5_proc_2 >= -5053
 c353: u_a5 - u_a10 - 1243 y_a10_proc_2 >= 0
 c354: u_a11 - u_a5 - 871 y_a5_proc_2 >= -2527
 c355: u_a11 - u_a5 - 964 y_a5_proc_0 >= -2527
 c356: u_a5 - u_a11 - 1263 y_a11_proc_2 >= 0
 c357: u_a5 - u_a11 - 1073 y_a11_proc_0 >= 0
 c358: u_a12 - u_a5 - 871 y_a5_proc_2 >= -1265
 c359: u_a12 - u_a5 - 964 y_a5_proc_0 >= -2
 c360: u_a5 - u_a12 - 1110 y_a12_proc_2 >= -3788
 c361: u_a5 - u_a12 - 1193 y_a12_proc_0 >= -2525
 c362: u_a13 - u_a5 - 871 y_a5_proc_2 >= -5053
 c363: u_a5 - u_a13 - 1017 y_a13_proc_2 >= 0
 c364: u_a14 - u_a5 - 964 y_a5_proc_0 >= -2527
 c365: u_a5 - u_a14 - 1017 y_a14_proc_0 >= 0
 c366: u_a7 - u_a6 - 860 y_a6_proc_2 >= -2526
 c367: u_a6 - u_a7 - 1057 y_a7_proc_2 >= -1
 c368: u_a8 - u_a6 - 1087 y_a6_proc_0 >= -1
 c369: u_a6 - u_a8 - 1153 y_a8_proc_0 >= -5052
 c370: u_a9 - u_a6 - 860 y_a6_proc_2 >= -2527
 c371: u_a9 - u_a6 - 1087 y_a6_proc_0 >= -3790
 c372: u_a6 - u_a9 - 713 y_a9_proc_2 >= 0
 c373: u_a6 - u_a9 - 1165 y_a9_proc_0 >= -1263
 c374: u_a10 - u_a6 - 860 y_a6_proc_2 >= -2526
 c375: u_a6 - u_a10 - 1243 y_a10_proc_2 >= -1
 c376: u_a11 - u_a6 - 860 y_a6_proc_2 >= 0
 c377: u_a11 - u_a6 - 1087 y_a6_proc_0 >= -2526
 c378: u_a6 - u_a11 - 1263 y_a11_proc_2 >= -1
 c379: u_a6 - u_a11 - 1073 y_a11_proc_0 >= -2527
 c380: u_a12 - u_a6 - 860 y_a6_proc_2 >= 0
 c381: u_a12 - u_a6 - 1087 y_a6_proc_0 >= -1263
 c382: u_a6 - u_a12 - 1110 y_a12_proc_2 >= -2527
 c383: u_a6 - u_a12 - 1193 y_a12_proc_0 >= -3790
 c384: u_a13 - u_a6 - 860 y_a6_proc_2 >= 0
 c385: u_a6 - u_a13 - 1017 y_a13_proc_2 >= -2527
 c386: u_a14 - u_a6 - 1087 y_a6_proc_0 >= -5052
 c387: u_a6 - u_a14 - 1017 y_a14_proc_0 >= -1
 c388: u_a8 - u_a7 - 842 y_a7_proc_1 >= -1
 c389: u_a7 - u_a8 - 1014 y_a8_proc_1 >= 0
 c390: u_a9 - u_a7 - 1057 y_a7_proc_2 >= -2527
 c391: u_a9 - u_a7 - 842 y_a7_proc_1 >= -1
 c392: u_a7 - u_a9 - 713 y_a9_proc_2 >= -2526
 c393: u_a7 - u_a9 - 450 y_a9_proc_1 >= 0
 c394: u_a10 - u_a7 - 1057 y_a7_proc_2 >= -2526
 c395: u_a10 - u_a7 - 842 y_a7_proc_1 >= 0
 c396: u_a7 - u_a10 - 1243 y_a10_proc_2 >= -2527
 c397: u_a7 - u_a10 - 849 y_a10_proc_1 >= -1
 c398: u_a11 - u_a7 - 1057 y_a7_proc_2 >= -2526
 c399: u_a11 - u_a7 - 842 y_a7_proc_1 >= -2526
 c400: u_a7 - u_a11 - 1263 y_a11_proc_2 >= -1
 c401: u_a7 - u_a11 - 619 y_a11_proc_1 >= -1
 c402: u_a12 - u_a7 - 1057 y_a7_proc_2 >= -2526
 c403: u_a12 - u_a7 - 842 y_a7_proc_1 >= 0
 c404: u_a7 - u_a12 - 1110 y_a12_proc_2 >= -2527
 c405: u_a7 - u_a12 - 737 y_a12_proc_1 >= -1
 c406: u_a13 - u_a7 - 1057 y_a7_proc_2 >= -2526
 c407: u_a13 - u_a7 - 842 y_a7_proc_1 >= 0
 c408: u_a7 - u_a13 - 1017 y_a13_proc_2 >= -2527
 c409: u_a7 - u_a13 - 898 y_a13_proc_1 >= -1
 c410: u_a14 - u_a7 - 842 y_a7_proc_1 >= 0
 c411: u_a7 - u_a14 - 1003 y_a14_proc_1 >= -1
 c412: u_a9 - u_a8 - 1153 y_a8_proc_0 >= -2527
 c413: u_a9 - u_a8 - 1014 y_a8_proc_1 >= -1
 c414: u_a8 - u_a9 - 1165 y_a9_proc_0 >= -2526
 c415: u_a8 - u_a9 - 450 y_a9_proc_1 >= 0
 c416: u_a10 - u_a8 - 1014 y_a8_proc_1 >= 0
 c417: u_a8 - u_a10 - 849 y_a10_proc_1 >= -1
 c418: u_a11 - u_a8 - 1153 y_a8_proc_0 >= -3789
 c419: u_a11 - u_a8 - 1014 y_a8_proc_1 >= -2526
 c420: u_a8 - u_a11 - 1073 y_a11_proc_0 >= -1264
 c421: u_a8 - u_a11 - 619 y_a11_proc_1 >= -1
 c422: u_a12 - u_a8 - 1153 y_a8_proc_0 >= -2526
 c423: u_a12 - u_a8 - 1014 y_a8_proc_1 >= 0
 c424: u_a8 - u_a12 - 1193 y_a12_proc_0 >= -2527
 c425: u_a8 - u_a12 - 737 y_a12_proc_1 >= -1
 c426: u_a13 - u_a8 - 1014 y_a8_proc_1 >= 0
 c427: u_a8 - u_a13 - 898 y_a13_proc_1 >= -1
 c428: u_a14 - u_a8 - 1153 y_a8_proc_0 >= -2526
 c429: u_a14 - u_a8 - 1014 y_a8_proc_1 >= 0
 c430: u_a8 - u_a14 - 1017 y_a14_proc_0 >= -2527
 c431: u_a8 - u_a14 - 1003 y_a14_proc_1 >= -1
 c432: u_a10 - u_a9 - 713 y_a9_proc_2 >= -2526
 c433: u_a10 - u_a9 - 450 y_a9_proc_1 >= 0
 c434: u_a9 - u_a10 - 1243 y_a10_proc_2 >= -2527
 c435: u_a9 - u_a10 - 849 y_a10_proc_1 >= -1
 c436: u_a11 - u_a9 - 713 y_a9_proc_2 >= -2526
 c437: u_a11 - u_a9 - 1165 y_a9_proc_0 >= -3789
 c438: u_a11 - u_a9 - 450 y_a9_proc_1 >= -2526
 c439: u_a9 - u_a11 - 1263 y_a11_proc_2 >= -1
 c440: u_a9 - u_a11 - 1073 y_a11_proc_0 >= -1264
 c441: u_a9 - u_a11 - 619 y_a11_proc_1 >= -1
 c442: u_a12 - u_a9 - 713 y_a9_proc_2 >= -2526
 c443: u_a12 - u_a9 - 1165 y_a9_proc_0 >= -2526
 c444: u_a12 - u_a9 - 450 y_a9_proc_1 >= 0
 c445: u_a9 - u_a12 - 1110 y_a12_proc_2 >= -2527
 c446: u_a9 - u_a12 - 1193 y_a12_proc_0 >= -2527
 c447: u_a9 - u_a12 - 737 y_a12_proc_1 >= -1
 c448: u_a13 - u_a9 - 713 y_a9_proc_2 >= -2526
 c449: u_a13 - u_a9 - 450 y_a9_proc_1 >= 0
 c450: u_a9 - u_a13 - 1017 y_a13_proc_2 >= -2527
 c451: u_a9 - u_a13 - 898 y_a13_proc_1 >= -1
 c452: u_a14 - u_a9 - 1165 y_a9_proc_0 >= -2526
 c453: u_a14 - u_a9 - 450 y_a9_proc_1 >= 0
 c454: u_a9 - u_a14 - 1017 y_a14_proc_0 >= -2527
 c455: u_a9 - u_a14 - 1003 y_a14_proc_1 >= -1
 c456: u_a11 - u_a10 - 1243 y_a10_proc_2 >= -2527
 c457: u_a11 - u_a10 - 849 y_a10_proc_1 >= -2527
 c458: u_a10 - u_a11 - 1263 y_a11_proc_2 >= 0
 c459: u_a10 - u_a11 - 619 y_a11_proc_1 >= 0
 c460: u_a12 - u_a10 - 1243 y_a10_proc_2 >= -2527
 c461: u_a12 - u_a10 - 849 y_a10_proc_1 >= -1
 c462: u_a10 - u_a12 - 1110 y_a12_proc_2 >= -2526
 c463: u_a10 - u_a12 - 737 y_a12_proc_1 >= 0
 c464: u_a13 - u_a10 - 1243 y_a10_proc_2 >= -2527
 c465: u_a13 - u_a10 - 849 y_a10_proc_1 >= -1
 c466: u_a10 - u_a13 - 1017 y_a13_proc_2 >= -2526
 c467: u_a10 - u_a13 - 898 y_a13_proc_1 >= 0
 c468: u_a14 - u_a10 - 849 y_a10_proc_1 >= 0
 c469: u_a10 - u_a14 - 1003 y_a14_proc_1 >= -1
 c470: u_a12 - u_a11 - 1263 y_a11_proc_2 >= -1
 c471: u_a12 - u_a11 - 1073 y_a11_proc_0 >= -1264
 c472: u_a12 - u_a11 - 619 y_a11_proc_1 >= -1
 c473: u_a11 - u_a12 - 1110 y_a12_proc_2 >= -2526
 c474: u_a11 - u_a12 - 1193 y_a12_proc_0 >= -3789
 c475: u_a11 - u_a12 - 737 y_a12_proc_1 >= -2526
 c476: u_a13 - u_a11 - 1263 y_a11_proc_2 >= -1
 c477: u_a13 - u_a11 - 619 y_a11_proc_1 >= -1
 c478: u_a11 - u_a13 - 1017 y_a13_proc_2 >= -2526
 c479: u_a11 - u_a13 - 898 y_a13_proc_1 >= -2526
 c480: u_a14 - u_a11 - 1073 y_a11_proc_0 >= -3789
 c481: u_a14 - u_a11 - 619 y_a11_proc_1 >= -2526
 c482: u_a11 - u_a14 - 1017 y_a14_proc_0 >= -1264
 c483: u_a11 - u_a14 - 1003 y_a14_proc_1 >= -1
 c484: u_a13 - u_a12 - 1110 y_a12_proc_2 >= -2526
 c485: u_a13 - u_a12 - 737 y_a12_proc_1 >= 0
 c486: u_a12 - u_a13 - 1017 y_a13_proc_2 >= -2527
 c487: u_a12 - u_a13 - 898 y_a13_proc_1 >= -1
 c488: u_a14 - u_a12 - 1193 y_a12_proc_0 >= -2526
 c489: u_a14 - u_a12 - 737 y_a12_proc_1 >= 0
 c490: u_a12 - u_a14 - 1017 y_a14_proc_0 >= -2527
 c491: u_a12 - u_a14 - 1003 y_a14_proc_1 >= -1
 c492: u_a14 - u_a13 - 898 y_a13_proc_1 >= 0
 c493: u_a13 - u_a14 - 1003 y_a14_proc_1 >= -1

Bounds
End
